p cnf 60 30
-51 -14 16 0
-45 7 -32 0
6 49 24 0
-25 56 -8 0
-43 -2 -48 0
-33 17 -15 0
-55 51 -8 0
-1 -46 4 0
38 -59 -22 0
-39 29 -32 0
-55 -2 18 0
16 -23 27 0
-2 14 -12 0
7 -20 30 0
-55 -34 -47 0
51 53 6 0
16 -21 56 0
26 58 41 0
47 56 -40 0
-5 -17 -55 0
-36 -8 9 0
37 -24 -28 0
32 -33 -1 0
-28 20 -57 0
-37 -12 -55 0
-10 -3 -33 0
-56 58 -24 0
-2 17 -51 0
-40 35 50 0
47 -23 38 0
